n = 8;
m = 4;

opiniones_iniciales = [3, 2, 1, 2];

valores_opiniones = [0.125, 0.45, 0.67, 0.92];

costos_extras = [5.215, 9.3, 8.112, 2.2];

costos_desplazamiento = [|
    0.0, 1.23, 2.43, 3.8
    | 1.15, 0.0, 1.52, 2.75
    | 2.64, 0.94, 0.0, 3.92
    | 4.72, 1.11, 3.5, 0.0 |];

ct = 20.0;

maxMovs = 10;
